# Solution for model GasLib-40
# Objective value = 5.3494564899675915e+01
loadshed[innode_1] 0
loadshed[innode_2] 0
loadshed[innode_3] 0
loadshed[innode_4] 0
loadshed[innode_5] 0
loadshed[innode_6] 0
loadshed[innode_7] 0
loadshed[innode_8] 0
loadshed[source_1] -1.9988643641902737e-01
loadshed[source_2] 0.172500061593722
loadshed[source_3] 3.6576622747403276e-01
loadshed[sink_1] 4.0281663385424771e-01
loadshed[sink_2] 0
loadshed[sink_3] 0
loadshed[sink_4] 0
loadshed[sink_5] 0
loadshed[sink_6] 0
loadshed[sink_7] 0
loadshed[sink_8] 0
loadshed[sink_9] 1.4597019424443802e-03
loadshed[sink_10] 0
loadshed[sink_11] 0
loadshed[sink_12] 1
loadshed[sink_13] 0
loadshed[sink_14] 0
loadshed[sink_15] 0
loadshed[sink_16] 0
loadshed[sink_17] 0
loadshed[sink_18] 0
loadshed[sink_19] 0
loadshed[sink_20] 0
loadshed[sink_21] 1
loadshed[sink_22] 0
loadshed[sink_23] 0
loadshed[sink_24] 8.6672890647648482e-01
loadshed[sink_25] 0
loadshed[sink_26] 0
loadshed[sink_27] 0
loadshed[sink_28] 0
loadshed[sink_29] 0
flow[source_1,sink_3] 1.8969038003527191e+02
flow[innode_1,sink_16] 1.6354166666666970e+01
flow[innode_6,sink_13] 1.4212973392002143e+01
flow[sink_13,sink_14] -2.1411932746645252e+00
flow[sink_14,sink_10] -1.8495359941331117e+01
flow[sink_25,sink_26] 1.1208558615030951e+02
flow[sink_26,sink_9] 0
flow[sink_9,sink_18] -1.6330294457816276e+01
flow[sink_26,sink_4] 9.5731419483642838e+01
flow[sink_4,sink_20] -1.4417219360229792e+01
flow[sink_18,sink_6] -3.2684461124482944e+01
flow[sink_25,innode_8] -1.5698204670193553e+02
flow[sink_6,sink_7] -75.1592307583249
flow[sink_6,sink_22] 2.6120602967175326e+01
flow[sink_7,sink_24] 2.1795376753324893e+00
flow[sink_22,sink_1] 9.7664363005086585e+00
flow[sink_24,sink_21] 0
flow[sink_21,sink_12] 0
flow[sink_7,sink_5] -9.3692935100324036e+01
flow[sink_5,sink_17] -1.1004710176699071e+02
flow[sink_17,sink_4] -9.3794472177205961e+01
flow[sink_17,sink_8] -32.6067962564514
flow[sink_3,sink_23] 16.3541666666697
flow[sink_8,sink_20] -4.8960962923118068e+01
flow[sink_25,sink_20] 7.9732348950014512e+01
flow[sink_25,sink_15] -6.5403028457057943e+01
flow[sink_15,sink_29] -9.8111361790408864e+01
flow[sink_29,sink_28] 1.6354166666667879e+01
flow[sink_29,sink_2] 0
flow[sink_2,sink_15] -1.6354166666684250e+01
flow[sink_29,innode_7] -1.3081969512374249e+02
flow[innode_4,sink_19] 1.0026619327467807e+02
flow[sink_19,innode_3] 3.2967950489798085e+01
flow[innode_4,innode_5] 0
flow[sink_27,innode_5] 0
flow[sink_27,sink_19] -1.6354166666679703e+01
flow[sink_10,sink_11] 3.2708333333333641e+01
flow[sink_10,innode_2] -3.4589909451533615e+01
flow[sink_10,innode_3] -3.2967950489798085e+01
flow[innode_6,sink_25] -1.4212973392002143e+01
flow[sink_11,innode_1] 1.6354166666666970e+01
flow[sink_19,innode_2] 3.4589909451533615e+01
flow[source_3,innode_4] 1.0026619327467807e+02
flow[source_2,innode_7] 1.3081969512374249e+02
flow[sink_3,innode_8] 1.5698204670193553e+02
pressure[innode_1] 7.4971290147604222e+01
pressure[innode_2] 7.6951211030726228e+01
pressure[innode_3] 7.6878207237581975e+01
pressure[innode_4] 81.01325
pressure[innode_5] 81.01325
pressure[innode_6] 7.4322708799515723e+01
pressure[innode_7] 81.01325
pressure[innode_8] 80.3791875238938
pressure[source_1] 81.01325
pressure[source_2] 81.01325
pressure[source_3] 81.01325
pressure[sink_1] 1.0132500000000002e+00
pressure[sink_2] 7.4586584467904984e+01
pressure[sink_3] 80.3791875238938
pressure[sink_4] 5.4257046354039247e+01
pressure[sink_5] 42.4748172667959
pressure[sink_6] 2.4769011525852376e+00
pressure[sink_7] 3.5086582384058747e+00
pressure[sink_8] 5.1902870038267778e+01
pressure[sink_9] 1.01325
pressure[sink_10] 7.5122991455207767e+01
pressure[sink_11] 7.4971290147604222e+01
pressure[sink_12] 1.01325
pressure[sink_13] 7.4244355052414122e+01
pressure[sink_14] 7.4248186900168477e+01
pressure[sink_15] 7.4639977217671429e+01
pressure[sink_16] 7.3949640312786542e+01
pressure[sink_17] 5.0672530905138245e+01
pressure[sink_18] 1.6041287261320352e+00
pressure[sink_19] 7.6951211030726228e+01
pressure[sink_20] 5.5314760602717058e+01
pressure[sink_21] 1.01325
pressure[sink_22] 1.6485152372335334e+00
pressure[sink_23] 8.0214469512234018e+01
pressure[sink_24] 1.01325
pressure[sink_25] 7.4322708799515723e+01
pressure[sink_26] 6.6428586791163838e+01
pressure[sink_27] 7.6600081033582725e+01
pressure[sink_28] 7.7219053367389563e+01
pressure[sink_29] 7.7514335641006738e+01
interdiction[source_1,sink_3] 0
interdiction[innode_1,sink_16] 0
interdiction[innode_6,sink_13] 0
interdiction[sink_13,sink_14] 0
interdiction[sink_14,sink_10] 0
interdiction[sink_25,sink_26] 0
interdiction[sink_26,sink_9] 1
interdiction[sink_9,sink_18] 0
interdiction[sink_26,sink_4] 0
interdiction[sink_4,sink_20] 0
interdiction[sink_18,sink_6] 0
interdiction[sink_25,innode_8] 0
interdiction[sink_6,sink_7] 0
interdiction[sink_6,sink_22] 0
interdiction[sink_7,sink_24] 0
interdiction[sink_22,sink_1] 0
interdiction[sink_24,sink_21] 0
interdiction[sink_21,sink_12] 0
interdiction[sink_7,sink_5] 0
interdiction[sink_5,sink_17] 0
interdiction[sink_17,sink_4] 0
interdiction[sink_17,sink_8] 0
interdiction[sink_3,sink_23] 0
interdiction[sink_8,sink_20] 0
interdiction[sink_25,sink_20] 0
interdiction[sink_25,sink_15] 0
interdiction[sink_15,sink_29] 0
interdiction[sink_29,sink_28] 0
interdiction[sink_29,sink_2] 1
interdiction[sink_2,sink_15] 0
interdiction[sink_29,innode_7] 0
interdiction[innode_4,sink_19] 0
interdiction[sink_19,innode_3] 0
interdiction[innode_4,innode_5] 0
interdiction[sink_27,innode_5] 1
interdiction[sink_27,sink_19] 0
interdiction[sink_10,sink_11] 0
interdiction[sink_10,innode_2] 0
interdiction[sink_10,innode_3] 0
interdiction[innode_6,sink_25] 0
interdiction[sink_11,innode_1] 0
interdiction[sink_19,innode_2] 0
interdiction[source_3,innode_4] 0
interdiction[source_2,innode_7] 0
interdiction[sink_3,innode_8] 0
WCcheckFlow[source_1,sink_3] 39
WCcheckFlow[innode_1,sink_16] 1
WCcheckFlow[innode_6,sink_13] 13
WCcheckFlow[sink_13,sink_14] 12
WCcheckFlow[sink_14,sink_10] 11
WCcheckFlow[sink_25,sink_26] 15
WCcheckFlow[sink_26,sink_9] 0
WCcheckFlow[sink_9,sink_18] -1
WCcheckFlow[sink_26,sink_4] 14
WCcheckFlow[sink_4,sink_20] 1
WCcheckFlow[sink_18,sink_6] -2
WCcheckFlow[sink_25,innode_8] -36
WCcheckFlow[sink_6,sink_7] -5
WCcheckFlow[sink_6,sink_22] 2
WCcheckFlow[sink_7,sink_24] 3
WCcheckFlow[sink_22,sink_1] 1
WCcheckFlow[sink_24,sink_21] 2
WCcheckFlow[sink_21,sink_12] 1
WCcheckFlow[sink_7,sink_5] -9
WCcheckFlow[sink_5,sink_17] -10
WCcheckFlow[sink_17,sink_4] -12
WCcheckFlow[sink_17,sink_8] 1
WCcheckFlow[sink_3,sink_23] 1
WCcheckFlow[sink_8,sink_20] 0
WCcheckFlow[sink_25,sink_20] 0
WCcheckFlow[sink_25,sink_15] 6
WCcheckFlow[sink_15,sink_29] 4
WCcheckFlow[sink_29,sink_28] 1
WCcheckFlow[sink_29,sink_2] 0
WCcheckFlow[sink_2,sink_15] -1
WCcheckFlow[sink_29,innode_7] 2
WCcheckFlow[innode_4,sink_19] -3
WCcheckFlow[sink_19,innode_3] -5
WCcheckFlow[innode_4,innode_5] 1
WCcheckFlow[sink_27,innode_5] 0
WCcheckFlow[sink_27,sink_19] -1
WCcheckFlow[sink_10,sink_11] 3
WCcheckFlow[sink_10,innode_2] 1
WCcheckFlow[sink_10,innode_3] 6
WCcheckFlow[innode_6,sink_25] -14
WCcheckFlow[sink_11,innode_1] 2
WCcheckFlow[sink_19,innode_2] 0
WCcheckFlow[source_3,innode_4] -1
WCcheckFlow[source_2,innode_7] -1
WCcheckFlow[sink_3,innode_8] 37
